data/lp_files/pEFS/104_8.lp
\ Model foo
\ LP format - for model browsing. Use MPS format to capture full model detail.
Minimize
  z
Subject To
 allocateEach[1]: x[1,1] + x[2,1] + x[3,1] + x[4,1] + x[5,1] + x[6,1] = 1
 allocateEach[2]: x[1,2] + x[2,2] + x[3,2] + x[4,2] + x[5,2] + x[6,2] = 1
 allocateEach[3]: x[1,3] + x[2,3] + x[3,3] + x[4,3] + x[5,3] + x[6,3] = 1
 allocateEach[4]: x[1,4] + x[2,4] + x[3,4] + x[4,4] + x[5,4] + x[6,4] = 1
 allocateAllCash: cashProportion[1] + cashProportion[2] + cashProportion[3]
   + cashProportion[4] + cashProportion[5] + cashProportion[6] = 1
 findWorstP[1,2]: z + 0.1976919465243285 cashProportion[1]
   - 0.1976919465243285 cashProportion[2] + 0.1300071663330615 x[1,1]
   + 0.2364642795364124 x[1,2] + 0.241974942545778 x[1,3]
   + 0.1938616650604196 x[1,4] - 0.1300071663330615 x[2,1]
   - 0.2364642795364124 x[2,2] - 0.241974942545778 x[2,3]
   - 0.1938616650604196 x[2,4] >= 0
 findWorstP[1,3]: z + 0.1976919465243285 cashProportion[1]
   - 0.1976919465243285 cashProportion[3] + 0.1300071663330615 x[1,1]
   + 0.2364642795364124 x[1,2] + 0.241974942545778 x[1,3]
   + 0.1938616650604196 x[1,4] - 0.1300071663330615 x[3,1]
   - 0.2364642795364124 x[3,2] - 0.241974942545778 x[3,3]
   - 0.1938616650604196 x[3,4] >= 0
 findWorstP[1,4]: z + 0.1976919465243285 cashProportion[1]
   - 0.1976919465243285 cashProportion[4] + 0.1300071663330615 x[1,1]
   + 0.2364642795364124 x[1,2] + 0.241974942545778 x[1,3]
   + 0.1938616650604196 x[1,4] - 0.1300071663330615 x[4,1]
   - 0.2364642795364124 x[4,2] - 0.241974942545778 x[4,3]
   - 0.1938616650604196 x[4,4] >= 0
 findWorstP[1,5]: z + 0.1976919465243285 cashProportion[1]
   - 0.1976919465243285 cashProportion[5] + 0.1300071663330615 x[1,1]
   + 0.2364642795364124 x[1,2] + 0.241974942545778 x[1,3]
   + 0.1938616650604196 x[1,4] - 0.1300071663330615 x[5,1]
   - 0.2364642795364124 x[5,2] - 0.241974942545778 x[5,3]
   - 0.1938616650604196 x[5,4] >= 0
 findWorstP[1,6]: z + 0.1976919465243285 cashProportion[1]
   - 0.1976919465243285 cashProportion[6] + 0.1300071663330615 x[1,1]
   + 0.2364642795364124 x[1,2] + 0.241974942545778 x[1,3]
   + 0.1938616650604196 x[1,4] - 0.1300071663330615 x[6,1]
   - 0.2364642795364124 x[6,2] - 0.241974942545778 x[6,3]
   - 0.1938616650604196 x[6,4] >= 0
 findWorstP[2,1]: z - 0.25 cashProportion[1] + 0.25 cashProportion[2]
   - 0.27571875 x[1,1] - 0.2085625 x[1,2] - 0.2068125 x[1,3]
   - 0.05890625 x[1,4] + 0.27571875 x[2,1] + 0.2085625 x[2,2]
   + 0.2068125 x[2,3] + 0.05890625 x[2,4] >= 0
 findWorstP[2,3]: z + 0.25 cashProportion[2] - 0.25 cashProportion[3]
   + 0.27571875 x[2,1] + 0.2085625 x[2,2] + 0.2068125 x[2,3]
   + 0.05890625 x[2,4] - 0.27571875 x[3,1] - 0.2085625 x[3,2]
   - 0.2068125 x[3,3] - 0.05890625 x[3,4] >= 0
 findWorstP[2,4]: z + 0.25 cashProportion[2] - 0.25 cashProportion[4]
   + 0.27571875 x[2,1] + 0.2085625 x[2,2] + 0.2068125 x[2,3]
   + 0.05890625 x[2,4] - 0.27571875 x[4,1] - 0.2085625 x[4,2]
   - 0.2068125 x[4,3] - 0.05890625 x[4,4] >= 0
 findWorstP[2,5]: z + 0.25 cashProportion[2] - 0.25 cashProportion[5]
   + 0.27571875 x[2,1] + 0.2085625 x[2,2] + 0.2068125 x[2,3]
   + 0.05890625 x[2,4] - 0.27571875 x[5,1] - 0.2085625 x[5,2]
   - 0.2068125 x[5,3] - 0.05890625 x[5,4] >= 0
 findWorstP[2,6]: z + 0.25 cashProportion[2] - 0.25 cashProportion[6]
   + 0.27571875 x[2,1] + 0.2085625 x[2,2] + 0.2068125 x[2,3]
   + 0.05890625 x[2,4] - 0.27571875 x[6,1] - 0.2085625 x[6,2]
   - 0.2068125 x[6,3] - 0.05890625 x[6,4] >= 0
 findWorstP[3,1]: z - 0.2351281448389372 cashProportion[1]
   + 0.2351281448389372 cashProportion[3] - 0.2184046555372678 x[1,1]
   - 0.1525687749823654 x[1,2] - 0.1409593228309429 x[1,3]
   - 0.2529391018104867 x[1,4] + 0.2184046555372678 x[3,1]
   + 0.1525687749823654 x[3,2] + 0.1409593228309429 x[3,3]
   + 0.2529391018104867 x[3,4] >= 0
 findWorstP[3,2]: z - 0.2351281448389372 cashProportion[2]
   + 0.2351281448389372 cashProportion[3] - 0.2184046555372678 x[2,1]
   - 0.1525687749823654 x[2,2] - 0.1409593228309429 x[2,3]
   - 0.2529391018104867 x[2,4] + 0.2184046555372678 x[3,1]
   + 0.1525687749823654 x[3,2] + 0.1409593228309429 x[3,3]
   + 0.2529391018104867 x[3,4] >= 0
 findWorstP[3,4]: z + 0.2351281448389372 cashProportion[3]
   - 0.2351281448389372 cashProportion[4] + 0.2184046555372678 x[3,1]
   + 0.1525687749823654 x[3,2] + 0.1409593228309429 x[3,3]
   + 0.2529391018104867 x[3,4] - 0.2184046555372678 x[4,1]
   - 0.1525687749823654 x[4,2] - 0.1409593228309429 x[4,3]
   - 0.2529391018104867 x[4,4] >= 0
 findWorstP[3,5]: z + 0.2351281448389372 cashProportion[3]
   - 0.2351281448389372 cashProportion[5] + 0.2184046555372678 x[3,1]
   + 0.1525687749823654 x[3,2] + 0.1409593228309429 x[3,3]
   + 0.2529391018104867 x[3,4] - 0.2184046555372678 x[5,1]
   - 0.1525687749823654 x[5,2] - 0.1409593228309429 x[5,3]
   - 0.2529391018104867 x[5,4] >= 0
 findWorstP[3,6]: z + 0.2351281448389372 cashProportion[3]
   - 0.2351281448389372 cashProportion[6] + 0.2184046555372678 x[3,1]
   + 0.1525687749823654 x[3,2] + 0.1409593228309429 x[3,3]
   + 0.2529391018104867 x[3,4] - 0.2184046555372678 x[6,1]
   - 0.1525687749823654 x[6,2] - 0.1409593228309429 x[6,3]
   - 0.2529391018104867 x[6,4] >= 0
 findWorstP[4,1]: z - 0.3338062254861053 cashProportion[1]
   + 0.3338062254861053 cashProportion[4] - 0.00283735291663189 x[1,1]
   - 0.3196194609029458 x[1,2] - 0.1165400984728365 x[1,3]
   - 0.2271968622214804 x[1,4] + 0.00283735291663189 x[4,1]
   + 0.3196194609029458 x[4,2] + 0.1165400984728365 x[4,3]
   + 0.2271968622214804 x[4,4] >= 0
 findWorstP[4,2]: z - 0.3338062254861053 cashProportion[2]
   + 0.3338062254861053 cashProportion[4] - 0.00283735291663189 x[2,1]
   - 0.3196194609029458 x[2,2] - 0.1165400984728365 x[2,3]
   - 0.2271968622214804 x[2,4] + 0.00283735291663189 x[4,1]
   + 0.3196194609029458 x[4,2] + 0.1165400984728365 x[4,3]
   + 0.2271968622214804 x[4,4] >= 0
 findWorstP[4,3]: z - 0.3338062254861053 cashProportion[3]
   + 0.3338062254861053 cashProportion[4] - 0.00283735291663189 x[3,1]
   - 0.3196194609029458 x[3,2] - 0.1165400984728365 x[3,3]
   - 0.2271968622214804 x[3,4] + 0.00283735291663189 x[4,1]
   + 0.3196194609029458 x[4,2] + 0.1165400984728365 x[4,3]
   + 0.2271968622214804 x[4,4] >= 0
 findWorstP[4,5]: z + 0.3338062254861053 cashProportion[4]
   - 0.3338062254861053 cashProportion[5] + 0.00283735291663189 x[4,1]
   + 0.3196194609029458 x[4,2] + 0.1165400984728365 x[4,3]
   + 0.2271968622214804 x[4,4] - 0.00283735291663189 x[5,1]
   - 0.3196194609029458 x[5,2] - 0.1165400984728365 x[5,3]
   - 0.2271968622214804 x[5,4] >= 0
 findWorstP[4,6]: z + 0.3338062254861053 cashProportion[4]
   - 0.3338062254861053 cashProportion[6] + 0.00283735291663189 x[4,1]
   + 0.3196194609029458 x[4,2] + 0.1165400984728365 x[4,3]
   + 0.2271968622214804 x[4,4] - 0.00283735291663189 x[6,1]
   - 0.3196194609029458 x[6,2] - 0.1165400984728365 x[6,3]
   - 0.2271968622214804 x[6,4] >= 0
 findWorstP[5,1]: z - 0.2285714285714286 cashProportion[1]
   + 0.2285714285714286 cashProportion[5] - 0.0528857142857143 x[1,1]
   - 0.2501142857142857 x[1,2] - 0.1852 x[1,3] - 0.2832285714285714 x[1,4]
   + 0.0528857142857143 x[5,1] + 0.2501142857142857 x[5,2] + 0.1852 x[5,3]
   + 0.2832285714285714 x[5,4] >= 0
 findWorstP[5,2]: z - 0.2285714285714286 cashProportion[2]
   + 0.2285714285714286 cashProportion[5] - 0.0528857142857143 x[2,1]
   - 0.2501142857142857 x[2,2] - 0.1852 x[2,3] - 0.2832285714285714 x[2,4]
   + 0.0528857142857143 x[5,1] + 0.2501142857142857 x[5,2] + 0.1852 x[5,3]
   + 0.2832285714285714 x[5,4] >= 0
 findWorstP[5,3]: z - 0.2285714285714286 cashProportion[3]
   + 0.2285714285714286 cashProportion[5] - 0.0528857142857143 x[3,1]
   - 0.2501142857142857 x[3,2] - 0.1852 x[3,3] - 0.2832285714285714 x[3,4]
   + 0.0528857142857143 x[5,1] + 0.2501142857142857 x[5,2] + 0.1852 x[5,3]
   + 0.2832285714285714 x[5,4] >= 0
 findWorstP[5,4]: z - 0.2285714285714286 cashProportion[4]
   + 0.2285714285714286 cashProportion[5] - 0.0528857142857143 x[4,1]
   - 0.2501142857142857 x[4,2] - 0.1852 x[4,3] - 0.2832285714285714 x[4,4]
   + 0.0528857142857143 x[5,1] + 0.2501142857142857 x[5,2] + 0.1852 x[5,3]
   + 0.2832285714285714 x[5,4] >= 0
 findWorstP[5,6]: z + 0.2285714285714286 cashProportion[5]
   - 0.2285714285714286 cashProportion[6] + 0.0528857142857143 x[5,1]
   + 0.2501142857142857 x[5,2] + 0.1852 x[5,3] + 0.2832285714285714 x[5,4]
   - 0.0528857142857143 x[6,1] - 0.2501142857142857 x[6,2] - 0.1852 x[6,3]
   - 0.2832285714285714 x[6,4] >= 0
 findWorstP[6,1]: z - 0.2256190422471657 cashProportion[1]
   + 0.2256190422471657 cashProportion[6] - 0.225252411303514 x[1,1]
   - 0.2478425179085115 x[1,2] - 0.209036042641999 x[1,3]
   - 0.0922499858988099 x[1,4] + 0.225252411303514 x[6,1]
   + 0.2478425179085115 x[6,2] + 0.209036042641999 x[6,3]
   + 0.0922499858988099 x[6,4] >= 0
 findWorstP[6,2]: z - 0.2256190422471657 cashProportion[2]
   + 0.2256190422471657 cashProportion[6] - 0.225252411303514 x[2,1]
   - 0.2478425179085115 x[2,2] - 0.209036042641999 x[2,3]
   - 0.0922499858988099 x[2,4] + 0.225252411303514 x[6,1]
   + 0.2478425179085115 x[6,2] + 0.209036042641999 x[6,3]
   + 0.0922499858988099 x[6,4] >= 0
 findWorstP[6,3]: z - 0.2256190422471657 cashProportion[3]
   + 0.2256190422471657 cashProportion[6] - 0.225252411303514 x[3,1]
   - 0.2478425179085115 x[3,2] - 0.209036042641999 x[3,3]
   - 0.0922499858988099 x[3,4] + 0.225252411303514 x[6,1]
   + 0.2478425179085115 x[6,2] + 0.209036042641999 x[6,3]
   + 0.0922499858988099 x[6,4] >= 0
 findWorstP[6,4]: z - 0.2256190422471657 cashProportion[4]
   + 0.2256190422471657 cashProportion[6] - 0.225252411303514 x[4,1]
   - 0.2478425179085115 x[4,2] - 0.209036042641999 x[4,3]
   - 0.0922499858988099 x[4,4] + 0.225252411303514 x[6,1]
   + 0.2478425179085115 x[6,2] + 0.209036042641999 x[6,3]
   + 0.0922499858988099 x[6,4] >= 0
 findWorstP[6,5]: z - 0.2256190422471657 cashProportion[5]
   + 0.2256190422471657 cashProportion[6] - 0.225252411303514 x[5,1]
   - 0.2478425179085115 x[5,2] - 0.209036042641999 x[5,3]
   - 0.0922499858988099 x[5,4] + 0.225252411303514 x[6,1]
   + 0.2478425179085115 x[6,2] + 0.209036042641999 x[6,3]
   + 0.0922499858988099 x[6,4] >= 0
Bounds
 z <= 1
 -infinity <= cashProportion[1] <= 1
 -infinity <= cashProportion[2] <= 1
 -infinity <= cashProportion[3] <= 1
 -infinity <= cashProportion[4] <= 1
 -infinity <= cashProportion[5] <= 1
 -infinity <= cashProportion[6] <= 1
Binaries
 x[1,1] x[1,2] x[1,3] x[1,4] x[2,1] x[2,2] x[2,3] x[2,4] x[3,1] x[3,2]
 x[3,3] x[3,4] x[4,1] x[4,2] x[4,3] x[4,4] x[5,1] x[5,2] x[5,3] x[5,4]
 x[6,1] x[6,2] x[6,3] x[6,4]
End
