data/mps_files/pEFS/104_8.mps
NAME foo
ROWS
 N  OBJ
 E  allocateEach[1]
 E  allocateEach[2]
 E  allocateEach[3]
 E  allocateEach[4]
 E  allocateAllCash
 G  findWorstP[1,2]
 G  findWorstP[1,3]
 G  findWorstP[1,4]
 G  findWorstP[1,5]
 G  findWorstP[1,6]
 G  findWorstP[2,1]
 G  findWorstP[2,3]
 G  findWorstP[2,4]
 G  findWorstP[2,5]
 G  findWorstP[2,6]
 G  findWorstP[3,1]
 G  findWorstP[3,2]
 G  findWorstP[3,4]
 G  findWorstP[3,5]
 G  findWorstP[3,6]
 G  findWorstP[4,1]
 G  findWorstP[4,2]
 G  findWorstP[4,3]
 G  findWorstP[4,5]
 G  findWorstP[4,6]
 G  findWorstP[5,1]
 G  findWorstP[5,2]
 G  findWorstP[5,3]
 G  findWorstP[5,4]
 G  findWorstP[5,6]
 G  findWorstP[6,1]
 G  findWorstP[6,2]
 G  findWorstP[6,3]
 G  findWorstP[6,4]
 G  findWorstP[6,5]
COLUMNS
    z         OBJ       1
    z         findWorstP[1,2]  1
    z         findWorstP[1,3]  1
    z         findWorstP[1,4]  1
    z         findWorstP[1,5]  1
    z         findWorstP[1,6]  1
    z         findWorstP[2,1]  1
    z         findWorstP[2,3]  1
    z         findWorstP[2,4]  1
    z         findWorstP[2,5]  1
    z         findWorstP[2,6]  1
    z         findWorstP[3,1]  1
    z         findWorstP[3,2]  1
    z         findWorstP[3,4]  1
    z         findWorstP[3,5]  1
    z         findWorstP[3,6]  1
    z         findWorstP[4,1]  1
    z         findWorstP[4,2]  1
    z         findWorstP[4,3]  1
    z         findWorstP[4,5]  1
    z         findWorstP[4,6]  1
    z         findWorstP[5,1]  1
    z         findWorstP[5,2]  1
    z         findWorstP[5,3]  1
    z         findWorstP[5,4]  1
    z         findWorstP[5,6]  1
    z         findWorstP[6,1]  1
    z         findWorstP[6,2]  1
    z         findWorstP[6,3]  1
    z         findWorstP[6,4]  1
    z         findWorstP[6,5]  1
    cashProportion[1]  allocateAllCash  1
    cashProportion[1]  findWorstP[1,2]  1.9769194652432848e-01
    cashProportion[1]  findWorstP[1,3]  1.9769194652432848e-01
    cashProportion[1]  findWorstP[1,4]  1.9769194652432848e-01
    cashProportion[1]  findWorstP[1,5]  1.9769194652432848e-01
    cashProportion[1]  findWorstP[1,6]  1.9769194652432848e-01
    cashProportion[1]  findWorstP[2,1]  -2.5000000000000006e-01
    cashProportion[1]  findWorstP[3,1]  -2.3512814483893724e-01
    cashProportion[1]  findWorstP[4,1]  -3.3380622548610533e-01
    cashProportion[1]  findWorstP[5,1]  -2.2857142857142859e-01
    cashProportion[1]  findWorstP[6,1]  -2.2561904224716570e-01
    cashProportion[2]  allocateAllCash  1
    cashProportion[2]  findWorstP[1,2]  -1.9769194652432848e-01
    cashProportion[2]  findWorstP[2,1]  2.5000000000000006e-01
    cashProportion[2]  findWorstP[2,3]  2.5000000000000006e-01
    cashProportion[2]  findWorstP[2,4]  2.5000000000000006e-01
    cashProportion[2]  findWorstP[2,5]  2.5000000000000006e-01
    cashProportion[2]  findWorstP[2,6]  2.5000000000000006e-01
    cashProportion[2]  findWorstP[3,2]  -2.3512814483893724e-01
    cashProportion[2]  findWorstP[4,2]  -3.3380622548610533e-01
    cashProportion[2]  findWorstP[5,2]  -2.2857142857142859e-01
    cashProportion[2]  findWorstP[6,2]  -2.2561904224716570e-01
    cashProportion[3]  allocateAllCash  1
    cashProportion[3]  findWorstP[1,3]  -1.9769194652432848e-01
    cashProportion[3]  findWorstP[2,3]  -2.5000000000000006e-01
    cashProportion[3]  findWorstP[3,1]  2.3512814483893724e-01
    cashProportion[3]  findWorstP[3,2]  2.3512814483893724e-01
    cashProportion[3]  findWorstP[3,4]  2.3512814483893724e-01
    cashProportion[3]  findWorstP[3,5]  2.3512814483893724e-01
    cashProportion[3]  findWorstP[3,6]  2.3512814483893724e-01
    cashProportion[3]  findWorstP[4,3]  -3.3380622548610533e-01
    cashProportion[3]  findWorstP[5,3]  -2.2857142857142859e-01
    cashProportion[3]  findWorstP[6,3]  -2.2561904224716570e-01
    cashProportion[4]  allocateAllCash  1
    cashProportion[4]  findWorstP[1,4]  -1.9769194652432848e-01
    cashProportion[4]  findWorstP[2,4]  -2.5000000000000006e-01
    cashProportion[4]  findWorstP[3,4]  -2.3512814483893724e-01
    cashProportion[4]  findWorstP[4,1]  3.3380622548610533e-01
    cashProportion[4]  findWorstP[4,2]  3.3380622548610533e-01
    cashProportion[4]  findWorstP[4,3]  3.3380622548610533e-01
    cashProportion[4]  findWorstP[4,5]  3.3380622548610533e-01
    cashProportion[4]  findWorstP[4,6]  3.3380622548610533e-01
    cashProportion[4]  findWorstP[5,4]  -2.2857142857142859e-01
    cashProportion[4]  findWorstP[6,4]  -2.2561904224716570e-01
    cashProportion[5]  allocateAllCash  1
    cashProportion[5]  findWorstP[1,5]  -1.9769194652432848e-01
    cashProportion[5]  findWorstP[2,5]  -2.5000000000000006e-01
    cashProportion[5]  findWorstP[3,5]  -2.3512814483893724e-01
    cashProportion[5]  findWorstP[4,5]  -3.3380622548610533e-01
    cashProportion[5]  findWorstP[5,1]  2.2857142857142859e-01
    cashProportion[5]  findWorstP[5,2]  2.2857142857142859e-01
    cashProportion[5]  findWorstP[5,3]  2.2857142857142859e-01
    cashProportion[5]  findWorstP[5,4]  2.2857142857142859e-01
    cashProportion[5]  findWorstP[5,6]  2.2857142857142859e-01
    cashProportion[5]  findWorstP[6,5]  -2.2561904224716570e-01
    cashProportion[6]  allocateAllCash  1
    cashProportion[6]  findWorstP[1,6]  -1.9769194652432848e-01
    cashProportion[6]  findWorstP[2,6]  -2.5000000000000006e-01
    cashProportion[6]  findWorstP[3,6]  -2.3512814483893724e-01
    cashProportion[6]  findWorstP[4,6]  -3.3380622548610533e-01
    cashProportion[6]  findWorstP[5,6]  -2.2857142857142859e-01
    cashProportion[6]  findWorstP[6,1]  2.2561904224716570e-01
    cashProportion[6]  findWorstP[6,2]  2.2561904224716570e-01
    cashProportion[6]  findWorstP[6,3]  2.2561904224716570e-01
    cashProportion[6]  findWorstP[6,4]  2.2561904224716570e-01
    cashProportion[6]  findWorstP[6,5]  2.2561904224716570e-01
    MARKER    'MARKER'                 'INTORG'
    x[1,1]    allocateEach[1]  1
    x[1,1]    findWorstP[1,2]  1.3000716633306150e-01
    x[1,1]    findWorstP[1,3]  1.3000716633306150e-01
    x[1,1]    findWorstP[1,4]  1.3000716633306150e-01
    x[1,1]    findWorstP[1,5]  1.3000716633306150e-01
    x[1,1]    findWorstP[1,6]  1.3000716633306150e-01
    x[1,1]    findWorstP[2,1]  -0.27571875
    x[1,1]    findWorstP[3,1]  -2.1840465553726779e-01
    x[1,1]    findWorstP[4,1]  -2.8373529166318945e-03
    x[1,1]    findWorstP[5,1]  -5.2885714285714279e-02
    x[1,1]    findWorstP[6,1]  -0.225252411303514
    x[1,2]    allocateEach[2]  1
    x[1,2]    findWorstP[1,2]  2.3646427953641236e-01
    x[1,2]    findWorstP[1,3]  2.3646427953641236e-01
    x[1,2]    findWorstP[1,4]  2.3646427953641236e-01
    x[1,2]    findWorstP[1,5]  2.3646427953641236e-01
    x[1,2]    findWorstP[1,6]  2.3646427953641236e-01
    x[1,2]    findWorstP[2,1]  -2.0856249999999998e-01
    x[1,2]    findWorstP[3,1]  -1.5256877498236537e-01
    x[1,2]    findWorstP[4,1]  -3.1961946090294580e-01
    x[1,2]    findWorstP[5,1]  -2.5011428571428568e-01
    x[1,2]    findWorstP[6,1]  -2.4784251790851147e-01
    x[1,3]    allocateEach[3]  1
    x[1,3]    findWorstP[1,2]  0.241974942545778
    x[1,3]    findWorstP[1,3]  0.241974942545778
    x[1,3]    findWorstP[1,4]  0.241974942545778
    x[1,3]    findWorstP[1,5]  0.241974942545778
    x[1,3]    findWorstP[1,6]  0.241974942545778
    x[1,3]    findWorstP[2,1]  -0.2068125
    x[1,3]    findWorstP[3,1]  -1.4095932283094287e-01
    x[1,3]    findWorstP[4,1]  -1.1654009847283650e-01
    x[1,3]    findWorstP[5,1]  -1.8519999999999998e-01
    x[1,3]    findWorstP[6,1]  -2.0903604264199896e-01
    x[1,4]    allocateEach[4]  1
    x[1,4]    findWorstP[1,2]  1.9386166506041957e-01
    x[1,4]    findWorstP[1,3]  1.9386166506041957e-01
    x[1,4]    findWorstP[1,4]  1.9386166506041957e-01
    x[1,4]    findWorstP[1,5]  1.9386166506041957e-01
    x[1,4]    findWorstP[1,6]  1.9386166506041957e-01
    x[1,4]    findWorstP[2,1]  -0.05890625
    x[1,4]    findWorstP[3,1]  -2.5293910181048673e-01
    x[1,4]    findWorstP[4,1]  -2.2719686222148039e-01
    x[1,4]    findWorstP[5,1]  -2.8322857142857139e-01
    x[1,4]    findWorstP[6,1]  -9.2249985898809853e-02
    x[2,1]    allocateEach[1]  1
    x[2,1]    findWorstP[1,2]  -1.3000716633306150e-01
    x[2,1]    findWorstP[2,1]  0.27571875
    x[2,1]    findWorstP[2,3]  0.27571875
    x[2,1]    findWorstP[2,4]  0.27571875
    x[2,1]    findWorstP[2,5]  0.27571875
    x[2,1]    findWorstP[2,6]  0.27571875
    x[2,1]    findWorstP[3,2]  -2.1840465553726779e-01
    x[2,1]    findWorstP[4,2]  -2.8373529166318945e-03
    x[2,1]    findWorstP[5,2]  -5.2885714285714279e-02
    x[2,1]    findWorstP[6,2]  -0.225252411303514
    x[2,2]    allocateEach[2]  1
    x[2,2]    findWorstP[1,2]  -2.3646427953641236e-01
    x[2,2]    findWorstP[2,1]  2.0856249999999998e-01
    x[2,2]    findWorstP[2,3]  2.0856249999999998e-01
    x[2,2]    findWorstP[2,4]  2.0856249999999998e-01
    x[2,2]    findWorstP[2,5]  2.0856249999999998e-01
    x[2,2]    findWorstP[2,6]  2.0856249999999998e-01
    x[2,2]    findWorstP[3,2]  -1.5256877498236537e-01
    x[2,2]    findWorstP[4,2]  -3.1961946090294580e-01
    x[2,2]    findWorstP[5,2]  -2.5011428571428568e-01
    x[2,2]    findWorstP[6,2]  -2.4784251790851147e-01
    x[2,3]    allocateEach[3]  1
    x[2,3]    findWorstP[1,2]  -0.241974942545778
    x[2,3]    findWorstP[2,1]  0.2068125
    x[2,3]    findWorstP[2,3]  0.2068125
    x[2,3]    findWorstP[2,4]  0.2068125
    x[2,3]    findWorstP[2,5]  0.2068125
    x[2,3]    findWorstP[2,6]  0.2068125
    x[2,3]    findWorstP[3,2]  -1.4095932283094287e-01
    x[2,3]    findWorstP[4,2]  -1.1654009847283650e-01
    x[2,3]    findWorstP[5,2]  -1.8519999999999998e-01
    x[2,3]    findWorstP[6,2]  -2.0903604264199896e-01
    x[2,4]    allocateEach[4]  1
    x[2,4]    findWorstP[1,2]  -1.9386166506041957e-01
    x[2,4]    findWorstP[2,1]  0.05890625
    x[2,4]    findWorstP[2,3]  0.05890625
    x[2,4]    findWorstP[2,4]  0.05890625
    x[2,4]    findWorstP[2,5]  0.05890625
    x[2,4]    findWorstP[2,6]  0.05890625
    x[2,4]    findWorstP[3,2]  -2.5293910181048673e-01
    x[2,4]    findWorstP[4,2]  -2.2719686222148039e-01
    x[2,4]    findWorstP[5,2]  -2.8322857142857139e-01
    x[2,4]    findWorstP[6,2]  -9.2249985898809853e-02
    x[3,1]    allocateEach[1]  1
    x[3,1]    findWorstP[1,3]  -1.3000716633306150e-01
    x[3,1]    findWorstP[2,3]  -0.27571875
    x[3,1]    findWorstP[3,1]  2.1840465553726779e-01
    x[3,1]    findWorstP[3,2]  2.1840465553726779e-01
    x[3,1]    findWorstP[3,4]  2.1840465553726779e-01
    x[3,1]    findWorstP[3,5]  2.1840465553726779e-01
    x[3,1]    findWorstP[3,6]  2.1840465553726779e-01
    x[3,1]    findWorstP[4,3]  -2.8373529166318945e-03
    x[3,1]    findWorstP[5,3]  -5.2885714285714279e-02
    x[3,1]    findWorstP[6,3]  -0.225252411303514
    x[3,2]    allocateEach[2]  1
    x[3,2]    findWorstP[1,3]  -2.3646427953641236e-01
    x[3,2]    findWorstP[2,3]  -2.0856249999999998e-01
    x[3,2]    findWorstP[3,1]  1.5256877498236537e-01
    x[3,2]    findWorstP[3,2]  1.5256877498236537e-01
    x[3,2]    findWorstP[3,4]  1.5256877498236537e-01
    x[3,2]    findWorstP[3,5]  1.5256877498236537e-01
    x[3,2]    findWorstP[3,6]  1.5256877498236537e-01
    x[3,2]    findWorstP[4,3]  -3.1961946090294580e-01
    x[3,2]    findWorstP[5,3]  -2.5011428571428568e-01
    x[3,2]    findWorstP[6,3]  -2.4784251790851147e-01
    x[3,3]    allocateEach[3]  1
    x[3,3]    findWorstP[1,3]  -0.241974942545778
    x[3,3]    findWorstP[2,3]  -0.2068125
    x[3,3]    findWorstP[3,1]  1.4095932283094287e-01
    x[3,3]    findWorstP[3,2]  1.4095932283094287e-01
    x[3,3]    findWorstP[3,4]  1.4095932283094287e-01
    x[3,3]    findWorstP[3,5]  1.4095932283094287e-01
    x[3,3]    findWorstP[3,6]  1.4095932283094287e-01
    x[3,3]    findWorstP[4,3]  -1.1654009847283650e-01
    x[3,3]    findWorstP[5,3]  -1.8519999999999998e-01
    x[3,3]    findWorstP[6,3]  -2.0903604264199896e-01
    x[3,4]    allocateEach[4]  1
    x[3,4]    findWorstP[1,3]  -1.9386166506041957e-01
    x[3,4]    findWorstP[2,3]  -0.05890625
    x[3,4]    findWorstP[3,1]  2.5293910181048673e-01
    x[3,4]    findWorstP[3,2]  2.5293910181048673e-01
    x[3,4]    findWorstP[3,4]  2.5293910181048673e-01
    x[3,4]    findWorstP[3,5]  2.5293910181048673e-01
    x[3,4]    findWorstP[3,6]  2.5293910181048673e-01
    x[3,4]    findWorstP[4,3]  -2.2719686222148039e-01
    x[3,4]    findWorstP[5,3]  -2.8322857142857139e-01
    x[3,4]    findWorstP[6,3]  -9.2249985898809853e-02
    x[4,1]    allocateEach[1]  1
    x[4,1]    findWorstP[1,4]  -1.3000716633306150e-01
    x[4,1]    findWorstP[2,4]  -0.27571875
    x[4,1]    findWorstP[3,4]  -2.1840465553726779e-01
    x[4,1]    findWorstP[4,1]  2.8373529166318945e-03
    x[4,1]    findWorstP[4,2]  2.8373529166318945e-03
    x[4,1]    findWorstP[4,3]  2.8373529166318945e-03
    x[4,1]    findWorstP[4,5]  2.8373529166318945e-03
    x[4,1]    findWorstP[4,6]  2.8373529166318945e-03
    x[4,1]    findWorstP[5,4]  -5.2885714285714279e-02
    x[4,1]    findWorstP[6,4]  -0.225252411303514
    x[4,2]    allocateEach[2]  1
    x[4,2]    findWorstP[1,4]  -2.3646427953641236e-01
    x[4,2]    findWorstP[2,4]  -2.0856249999999998e-01
    x[4,2]    findWorstP[3,4]  -1.5256877498236537e-01
    x[4,2]    findWorstP[4,1]  3.1961946090294580e-01
    x[4,2]    findWorstP[4,2]  3.1961946090294580e-01
    x[4,2]    findWorstP[4,3]  3.1961946090294580e-01
    x[4,2]    findWorstP[4,5]  3.1961946090294580e-01
    x[4,2]    findWorstP[4,6]  3.1961946090294580e-01
    x[4,2]    findWorstP[5,4]  -2.5011428571428568e-01
    x[4,2]    findWorstP[6,4]  -2.4784251790851147e-01
    x[4,3]    allocateEach[3]  1
    x[4,3]    findWorstP[1,4]  -0.241974942545778
    x[4,3]    findWorstP[2,4]  -0.2068125
    x[4,3]    findWorstP[3,4]  -1.4095932283094287e-01
    x[4,3]    findWorstP[4,1]  1.1654009847283650e-01
    x[4,3]    findWorstP[4,2]  1.1654009847283650e-01
    x[4,3]    findWorstP[4,3]  1.1654009847283650e-01
    x[4,3]    findWorstP[4,5]  1.1654009847283650e-01
    x[4,3]    findWorstP[4,6]  1.1654009847283650e-01
    x[4,3]    findWorstP[5,4]  -1.8519999999999998e-01
    x[4,3]    findWorstP[6,4]  -2.0903604264199896e-01
    x[4,4]    allocateEach[4]  1
    x[4,4]    findWorstP[1,4]  -1.9386166506041957e-01
    x[4,4]    findWorstP[2,4]  -0.05890625
    x[4,4]    findWorstP[3,4]  -2.5293910181048673e-01
    x[4,4]    findWorstP[4,1]  2.2719686222148039e-01
    x[4,4]    findWorstP[4,2]  2.2719686222148039e-01
    x[4,4]    findWorstP[4,3]  2.2719686222148039e-01
    x[4,4]    findWorstP[4,5]  2.2719686222148039e-01
    x[4,4]    findWorstP[4,6]  2.2719686222148039e-01
    x[4,4]    findWorstP[5,4]  -2.8322857142857139e-01
    x[4,4]    findWorstP[6,4]  -9.2249985898809853e-02
    x[5,1]    allocateEach[1]  1
    x[5,1]    findWorstP[1,5]  -1.3000716633306150e-01
    x[5,1]    findWorstP[2,5]  -0.27571875
    x[5,1]    findWorstP[3,5]  -2.1840465553726779e-01
    x[5,1]    findWorstP[4,5]  -2.8373529166318945e-03
    x[5,1]    findWorstP[5,1]  5.2885714285714279e-02
    x[5,1]    findWorstP[5,2]  5.2885714285714279e-02
    x[5,1]    findWorstP[5,3]  5.2885714285714279e-02
    x[5,1]    findWorstP[5,4]  5.2885714285714279e-02
    x[5,1]    findWorstP[5,6]  5.2885714285714279e-02
    x[5,1]    findWorstP[6,5]  -0.225252411303514
    x[5,2]    allocateEach[2]  1
    x[5,2]    findWorstP[1,5]  -2.3646427953641236e-01
    x[5,2]    findWorstP[2,5]  -2.0856249999999998e-01
    x[5,2]    findWorstP[3,5]  -1.5256877498236537e-01
    x[5,2]    findWorstP[4,5]  -3.1961946090294580e-01
    x[5,2]    findWorstP[5,1]  2.5011428571428568e-01
    x[5,2]    findWorstP[5,2]  2.5011428571428568e-01
    x[5,2]    findWorstP[5,3]  2.5011428571428568e-01
    x[5,2]    findWorstP[5,4]  2.5011428571428568e-01
    x[5,2]    findWorstP[5,6]  2.5011428571428568e-01
    x[5,2]    findWorstP[6,5]  -2.4784251790851147e-01
    x[5,3]    allocateEach[3]  1
    x[5,3]    findWorstP[1,5]  -0.241974942545778
    x[5,3]    findWorstP[2,5]  -0.2068125
    x[5,3]    findWorstP[3,5]  -1.4095932283094287e-01
    x[5,3]    findWorstP[4,5]  -1.1654009847283650e-01
    x[5,3]    findWorstP[5,1]  1.8519999999999998e-01
    x[5,3]    findWorstP[5,2]  1.8519999999999998e-01
    x[5,3]    findWorstP[5,3]  1.8519999999999998e-01
    x[5,3]    findWorstP[5,4]  1.8519999999999998e-01
    x[5,3]    findWorstP[5,6]  1.8519999999999998e-01
    x[5,3]    findWorstP[6,5]  -2.0903604264199896e-01
    x[5,4]    allocateEach[4]  1
    x[5,4]    findWorstP[1,5]  -1.9386166506041957e-01
    x[5,4]    findWorstP[2,5]  -0.05890625
    x[5,4]    findWorstP[3,5]  -2.5293910181048673e-01
    x[5,4]    findWorstP[4,5]  -2.2719686222148039e-01
    x[5,4]    findWorstP[5,1]  2.8322857142857139e-01
    x[5,4]    findWorstP[5,2]  2.8322857142857139e-01
    x[5,4]    findWorstP[5,3]  2.8322857142857139e-01
    x[5,4]    findWorstP[5,4]  2.8322857142857139e-01
    x[5,4]    findWorstP[5,6]  2.8322857142857139e-01
    x[5,4]    findWorstP[6,5]  -9.2249985898809853e-02
    x[6,1]    allocateEach[1]  1
    x[6,1]    findWorstP[1,6]  -1.3000716633306150e-01
    x[6,1]    findWorstP[2,6]  -0.27571875
    x[6,1]    findWorstP[3,6]  -2.1840465553726779e-01
    x[6,1]    findWorstP[4,6]  -2.8373529166318945e-03
    x[6,1]    findWorstP[5,6]  -5.2885714285714279e-02
    x[6,1]    findWorstP[6,1]  0.225252411303514
    x[6,1]    findWorstP[6,2]  0.225252411303514
    x[6,1]    findWorstP[6,3]  0.225252411303514
    x[6,1]    findWorstP[6,4]  0.225252411303514
    x[6,1]    findWorstP[6,5]  0.225252411303514
    x[6,2]    allocateEach[2]  1
    x[6,2]    findWorstP[1,6]  -2.3646427953641236e-01
    x[6,2]    findWorstP[2,6]  -2.0856249999999998e-01
    x[6,2]    findWorstP[3,6]  -1.5256877498236537e-01
    x[6,2]    findWorstP[4,6]  -3.1961946090294580e-01
    x[6,2]    findWorstP[5,6]  -2.5011428571428568e-01
    x[6,2]    findWorstP[6,1]  2.4784251790851147e-01
    x[6,2]    findWorstP[6,2]  2.4784251790851147e-01
    x[6,2]    findWorstP[6,3]  2.4784251790851147e-01
    x[6,2]    findWorstP[6,4]  2.4784251790851147e-01
    x[6,2]    findWorstP[6,5]  2.4784251790851147e-01
    x[6,3]    allocateEach[3]  1
    x[6,3]    findWorstP[1,6]  -0.241974942545778
    x[6,3]    findWorstP[2,6]  -0.2068125
    x[6,3]    findWorstP[3,6]  -1.4095932283094287e-01
    x[6,3]    findWorstP[4,6]  -1.1654009847283650e-01
    x[6,3]    findWorstP[5,6]  -1.8519999999999998e-01
    x[6,3]    findWorstP[6,1]  2.0903604264199896e-01
    x[6,3]    findWorstP[6,2]  2.0903604264199896e-01
    x[6,3]    findWorstP[6,3]  2.0903604264199896e-01
    x[6,3]    findWorstP[6,4]  2.0903604264199896e-01
    x[6,3]    findWorstP[6,5]  2.0903604264199896e-01
    x[6,4]    allocateEach[4]  1
    x[6,4]    findWorstP[1,6]  -1.9386166506041957e-01
    x[6,4]    findWorstP[2,6]  -0.05890625
    x[6,4]    findWorstP[3,6]  -2.5293910181048673e-01
    x[6,4]    findWorstP[4,6]  -2.2719686222148039e-01
    x[6,4]    findWorstP[5,6]  -2.8322857142857139e-01
    x[6,4]    findWorstP[6,1]  9.2249985898809853e-02
    x[6,4]    findWorstP[6,2]  9.2249985898809853e-02
    x[6,4]    findWorstP[6,3]  9.2249985898809853e-02
    x[6,4]    findWorstP[6,4]  9.2249985898809853e-02
    x[6,4]    findWorstP[6,5]  9.2249985898809853e-02
    MARKER    'MARKER'                 'INTEND'
RHS
    RHS1      allocateEach[1]  1
    RHS1      allocateEach[2]  1
    RHS1      allocateEach[3]  1
    RHS1      allocateEach[4]  1
    RHS1      allocateAllCash  1
BOUNDS
 UP BND1      z         1
 MI BND1      cashProportion[1]
 UP BND1      cashProportion[1]  1
 MI BND1      cashProportion[2]
 UP BND1      cashProportion[2]  1
 MI BND1      cashProportion[3]
 UP BND1      cashProportion[3]  1
 MI BND1      cashProportion[4]
 UP BND1      cashProportion[4]  1
 MI BND1      cashProportion[5]
 UP BND1      cashProportion[5]  1
 MI BND1      cashProportion[6]
 UP BND1      cashProportion[6]  1
 BV BND1      x[1,1]  
 BV BND1      x[1,2]  
 BV BND1      x[1,3]  
 BV BND1      x[1,4]  
 BV BND1      x[2,1]  
 BV BND1      x[2,2]  
 BV BND1      x[2,3]  
 BV BND1      x[2,4]  
 BV BND1      x[3,1]  
 BV BND1      x[3,2]  
 BV BND1      x[3,3]  
 BV BND1      x[3,4]  
 BV BND1      x[4,1]  
 BV BND1      x[4,2]  
 BV BND1      x[4,3]  
 BV BND1      x[4,4]  
 BV BND1      x[5,1]  
 BV BND1      x[5,2]  
 BV BND1      x[5,3]  
 BV BND1      x[5,4]  
 BV BND1      x[6,1]  
 BV BND1      x[6,2]  
 BV BND1      x[6,3]  
 BV BND1      x[6,4]  
ENDATA
